webassembly/ejemplos_dzn/folder10_json_51.dzn
TERM = { '.', 's(2)', 's(5)', 's(4)', 'in_1', 'local_1', 'in_2', 'in_3', 's(1)', 's(0)', 's(3)', 'in_0'};
null = '.';
s = 10;
n = 10;
ndeps = 4;
max_registers_sz = 4;
NR = 1;
registers = [|'local_1', 's(4)'|];
dependencies = [|'i32.store_2', 'i32.store_3', |'i32.store_3', 'call[function_index(0)]_4', |'call[function_index(0)]_4', 'i32.load16_u_7', |'call[function_index(0)]_4', 'i32.load8_s_8'|];
GET_ENUM = { GET1, GET2, GET3, GET4, GET5};
SET_ENUM = { SET1, SET2, SET3, SET4, SET5};
TEE_ENUM = { TEE1, TEE2, TEE3, TEE4, TEE5};
N = 6;
OP = { 'call[function_index(0)]_4', 'i32.const_0', 'i32.store_2', 'i32.store_3', 'i32.load16_u_7', 'i32.load8_s_8' };
in_ops = [1, 0, 2, 2, 1, 1 ];
out_ops = [3, 1, 0, 0, 1, 1 ];
in1 = ['in_3', '.', 's(5)', 'in_1', 's(2)', 's(3)' ];
in2 = ['.', '.', 'in_0', 'in_2', '.', '.' ];
in3 = ['.', '.', '.', '.', '.', '.' ];
out1 = ['s(2)', 's(5)', '.', '.', 's(3)', 's(4)' ];
out2 = ['s(1)', '.', '.', '.', '.', '.' ];
out3 = ['s(0)', '.', '.', '.', '.', '.' ];
comm = [false, false, false, false, false, false ];
gas = [1, 1, 1, 1, 1, 1 ];
sz = [1, 1, 1, 1, 1, 1 ];
stor = [true, false, true, true, false, false ];
lb = [ 1, 1, 1, 1, 1, 1 ];
ub = [ 10, 10, 10, 10, 10, 10 ];
startstack = [ 'in_0', 'in_1', 'in_2', 'in_3', null, null, null, null, null, null ];
endstack = [ 's(4)', 's(2)', 's(1)', 's(0)', null, null, null, null, null, null ];
