webassembly/ejemplos_results/folder10_json_51.txt
value = 10;
fgas = [1, 1, 1, 1, 1, 1, 1, 1, 2, 1];
fsize = [1, 1, 1, 1, 1, 1, 1, 1, 1, 1];
states = 
[|   in_0,   in_1,   in_2,   in_3,    '.', '.', '.', '.',  '.',  '.'
 | 's(5)',   in_0,   in_1,   in_2,   in_3, '.', '.', '.',  '.',  '.'
 |   in_1,   in_2,   in_3,    '.',    '.', '.', '.', '.',  '.',  '.'
 |   in_3,    '.',    '.',    '.',    '.', '.', '.', '.', in_2, in_1
 | 's(2)', 's(1)', 's(0)',    '.',    '.', '.', '.', '.',  '.',  '.'
 | 's(3)',   in_0, 's(0)',    '.',    '.', '.', '.', '.',  '.',  '.'
 | 's(4)', 's(1)', 's(0)',    '.',    '.', '.', '.', '.',  '.',  '.'
 | 's(5)', 's(2)', 's(1)', 's(0)',    '.', '.', '.', '.',  '.',  '.'
 | 's(5)', 's(4)', 's(2)', 's(1)', 's(0)', '.', '.', '.',  '.',  '.'
 | 's(4)', 's(2)', 's(1)', 's(0)',    '.', '.', '.', '.',  '.',  '.'
 | 's(4)', 's(2)', 's(1)', 's(0)',    '.', '.', '.', '.',  '.',  '.'
 |];
register_states = 
[| local_1, '.', '.', '.', '.'
 | local_1, '.', '.', '.', '.'
 | local_1, '.', '.', '.', '.'
 | local_1, '.', '.', '.', '.'
 | local_1, '.', '.', '.', '.'
 | local_1, '.', '.', '.', '.'
 | local_1, '.', '.', '.', '.'
 | local_1, '.', '.', '.', '.'
 | local_1, '.', '.', '.', '.'
 | local_1, '.', '.', '.', '.'
 |  's(4)', '.', '.', '.', '.'
 |];
program = [O('i32.const_0'), O('i32.store_2'), O('i32.store_3'), O('call[function_index(0)]_4'), O('i32.load16_u_7'), O('i32.load8_s_8'), O('i32.const_0'), O('i32.const_0'), POP, TEE(TEE1)];
% time elapsed: 0.15 s
----------
==========
% time elapsed: 0.21 s
% [value > 9]
